10	10
7	6	1	3	2	8	4	9	5	4	6	5	0	7	8	2	9	9	3	9
6	5	3	3	7	1	9	2	5	7	1	4	4	3	2	4	0	4	8	1
6	2	3	7	8	4	5	6	0	9	7	4	1	4	4	2	2	9	9	7
5	9	3	3	6	1	8	1	0	6	7	9	1	9	2	8	9	8	4	8
6	7	8	1	0	5	5	5	9	7	7	4	3	5	1	9	2	7	4	7
7	9	4	8	5	5	3	8	8	9	6	8	2	7	0	7	9	6	1	7
6	3	9	7	0	6	4	3	7	1	2	8	5	8	8	7	1	5	3	3
7	3	1	7	3	9	6	4	9	3	4	8	0	7	5	1	2	7	8	6
2	8	7	4	4	2	9	6	1	5	0	6	6	1	8	7	5	7	3	8
3	2	8	1	2	2	4	9	0	3	7	8	1	8	5	8	6	8	9	3
